WARNING: for repeatability, setting FPU to use double precision
============================[ Problem Statistics ]=============================
|                                                                             |
|  Number of variables:           100                                         |
|  Number of clauses:             449                                         |
|  Parse time:                   0.00 s                                       |
|  Eliminated clauses:           0.00 Mb                                      |
|  Simplification time:          0.00 s                                       |
|                                                                             |
============================[ Search Statistics ]==============================
| Conflicts |          ORIGINAL         |          LEARNT          | Progress |
|           |    Vars  Clauses Literals |    Limit  Clauses Lit/Cl |          |
===============================================================================
|       100 |      99      444     1332 |      162      100      6 |  0.010 % |
===============================================================================
restarts              : 2
conflicts             : 142            (94478 /sec)
decisions             : 192            (0.00 % random) (127745 /sec)
propagations          : 2971           (1976713 /sec)
conflict literals     : 906            (16.73 % deleted)
Memory used           : 13.00 MB
CPU time              : 0.001503 s

SATISFIABLE
